\ This file has been generated by DOcplex
\ ENCODING=ISO-8859-1
\Problem name: MCLP3_mul_c_3x3-2

Minimize
 obj: - 27 y_0 - 23 y_1 - 27 y_2 - 27 y_3 - 27 y_4 - 27 y_5 - 27 y_6 - 27 y_7
      - 27 y_8 - 140 x_0 - 140 x_2 - 168 x_7 + 28 c1a_0_int_slack_0
      + 28 c1a_1_int_slack_0 + 28 c1a_1_int_slack_1 + 28 c1a_2_int_slack_0
      + 28 c1a_3_int_slack_0 + 28 c1a_4_int_slack_0 + 28 c1a_5_int_slack_0
      + 28 c1a_6_int_slack_0 + 28 c1a_7_int_slack_0 + 28 c1a_8_int_slack_0 + [
      28 y_0^2 + 56 y_0*x_0 - 56 y_0*c1a_0_int_slack_0 + 28 y_1^2 + 56 y_1*x_0
      + 56 y_1*x_2 - 56 y_1*c1a_1_int_slack_0 - 56 y_1*c1a_1_int_slack_1
      + 28 y_2^2 + 56 y_2*x_2 - 56 y_2*c1a_2_int_slack_0 + 28 y_3^2 + 56 y_3*x_0
      - 56 y_3*c1a_3_int_slack_0 + 28 y_4^2 + 56 y_4*x_7
      - 56 y_4*c1a_4_int_slack_0 + 28 y_5^2 + 56 y_5*x_2
      - 56 y_5*c1a_5_int_slack_0 + 28 y_6^2 + 56 y_6*x_7
      - 56 y_6*c1a_6_int_slack_0 + 28 y_7^2 + 56 y_7*x_7
      - 56 y_7*c1a_7_int_slack_0 + 28 y_8^2 + 56 y_8*x_7
      - 56 y_8*c1a_8_int_slack_0 + 112 x_0^2 + 112 x_0*x_2 + 56 x_0*x_7
      - 56 x_0*c1a_0_int_slack_0 - 56 x_0*c1a_1_int_slack_0
      - 56 x_0*c1a_1_int_slack_1 - 56 x_0*c1a_3_int_slack_0 + 112 x_2^2
      + 56 x_2*x_7 - 56 x_2*c1a_1_int_slack_0 - 56 x_2*c1a_1_int_slack_1
      - 56 x_2*c1a_2_int_slack_0 - 56 x_2*c1a_5_int_slack_0 + 140 x_7^2
      - 56 x_7*c1a_4_int_slack_0 - 56 x_7*c1a_6_int_slack_0
      - 56 x_7*c1a_7_int_slack_0 - 56 x_7*c1a_8_int_slack_0
      + 28 c1a_0_int_slack_0^2 + 28 c1a_1_int_slack_0^2
      + 56 c1a_1_int_slack_0*c1a_1_int_slack_1 + 28 c1a_1_int_slack_1^2
      + 28 c1a_2_int_slack_0^2 + 28 c1a_3_int_slack_0^2 + 28 c1a_4_int_slack_0^2
      + 28 c1a_5_int_slack_0^2 + 28 c1a_6_int_slack_0^2 + 28 c1a_7_int_slack_0^2
      + 28 c1a_8_int_slack_0^2 ]/2 + 182
Subject To

Bounds
 0 <= y_0 <= 1
 0 <= y_1 <= 1
 0 <= y_2 <= 1
 0 <= y_3 <= 1
 0 <= y_4 <= 1
 0 <= y_5 <= 1
 0 <= y_6 <= 1
 0 <= y_7 <= 1
 0 <= y_8 <= 1
 0 <= x_0 <= 1
 0 <= x_2 <= 1
 0 <= x_7 <= 1
 0 <= c1a_0_int_slack_0 <= 1
 0 <= c1a_1_int_slack_0 <= 1
 0 <= c1a_1_int_slack_1 <= 1
 0 <= c1a_2_int_slack_0 <= 1
 0 <= c1a_3_int_slack_0 <= 1
 0 <= c1a_4_int_slack_0 <= 1
 0 <= c1a_5_int_slack_0 <= 1
 0 <= c1a_6_int_slack_0 <= 1
 0 <= c1a_7_int_slack_0 <= 1
 0 <= c1a_8_int_slack_0 <= 1

Binaries
 y_0 y_1 y_2 y_3 y_4 y_5 y_6 y_7 y_8 x_0 x_2 x_7 c1a_0_int_slack_0
 c1a_1_int_slack_0 c1a_1_int_slack_1 c1a_2_int_slack_0 c1a_3_int_slack_0
 c1a_4_int_slack_0 c1a_5_int_slack_0 c1a_6_int_slack_0 c1a_7_int_slack_0
 c1a_8_int_slack_0
End
